# AMPL MODEL: ./res/solid.ampl

# Timestamp: 17 February 2025, 10:29:01 AM

param MAXWORK := 32;

param:
TNAME: TWORK :=
'india2.pf' 40
'india2.pm' 160
'kilo2.pf' 60
'kilo2.pm' 120
'november2.pf' 80
'november2.pm' 240
'romeo2.pf' 60
'romeo2.pm' 120
'victor2.pe' 240
'victor2.pf' 80
'victor2.pm' 360;

set TSCOPE['india2.pf'] :=
78 79 80 81 84 85
;

set TSCOPE['india2.pm'] :=
3 4 7 8 9 10 11 14 15 16 17 18 21 22 23 24 25 28 29 30 31 32 35 36 37 38 39 42 43 44 45 46 49 50 51 52 53 56 57 58 59 60 63 64 65 66 67 70 71 72
73 74 77
;

set TSCOPE['kilo2.pf'] :=
58 59 60 63
;

set TSCOPE['kilo2.pm'] :=
3 4 7 8 9 10 11 14 15 16 17 18 21 22 23 24 25 28 29 30 31 32 35 36 37 38 39 42 43 44 45 46 49 50 51 52 53 56 57
;

set TSCOPE['november2.pf'] :=
88 91 92 93 94 95 98
;

set TSCOPE['november2.pm'] :=
3 4 7 8 9 10 11 14 15 16 17 18 21 22 23 24 25 28 29 30 31 32 35 36 37 38 39 42 43 44 45 46 49 50 51 52 53 56 57 58 59 60 63 64 65 66 67 70 71 72
73 74 77 78 79 80 81 84 85 86 87
;

set TSCOPE['romeo2.pf'] :=
143 144 147 148 149 150 151 154
;

set TSCOPE['romeo2.pm'] :=
3 4 7 8 9 10 11 14 15 16 17 18 21 22 23 24 25 28 29 30 31 32 35 36 37 38 39 42 43 44 45 46 49 50 51 52 53 56 57 58 59 60 63 64 65 66 67 70 71 72
73 74 77 78 79 80 81 84 85 86 87 88 91 92 93 94 95 98 99 100 101 102 105 106 107 108 109 112 113 114 115 116 119 120 121 123 126 127 128 129 130 133 134 135 136 137 140 141 142
;

set TSCOPE['victor2.pe'] :=
77 78 79 80 81 84 85 86 87 88 91 92 93 94 95 98 99 100
;

set TSCOPE['victor2.pf'] :=
232 233 234 235 238 239 240 241 242 245
;

set TSCOPE['victor2.pm'] :=
101 102 105 106 107 108 109 112 113 114 115 116 119 120 121 123 126 127 128 129 130 133 134 135 136 137 140 141 142 143 144 147 148 149 150 151 154 155 156 157 158 161 162 163 164 165 168 169 170 171
172 175 176 177 178 179 182 183 184 185 186 189 190 191 192 193 196 197 198 199 200 203 204 205 206 207 210 211 212 213 214 217 218 219 220 221 224 225 226 227 228 231
;

set ENAME :=
'PM.Fabian';

set ASSIGN :=
('PM.Fabian',*)
'india2.pf'
'india2.pm'
'kilo2.pf'
'kilo2.pm'
'november2.pf'
'november2.pm'
'romeo2.pf'
'romeo2.pm'
'victor2.pe'
'victor2.pf'
'victor2.pm';

param:
XBID: XBEXPERT XBTASK XBS XBE XBL XBU :=
1 'PM.Fabian' 'india2.pf' 78 85 6 7
2 'PM.Fabian' 'india2.pm' 2 77 3 4
3 'PM.Fabian' 'kilo2.pf' 58 63 15 16
4 'PM.Fabian' 'kilo2.pm' 2 57 3 4
5 'PM.Fabian' 'november2.pf' 88 98 11 12
6 'PM.Fabian' 'november2.pm' 2 87 3 4
7 'PM.Fabian' 'romeo2.pf' 143 154 7 8
8 'PM.Fabian' 'romeo2.pm' 2 142 1 2
9 'PM.Fabian' 'victor2.pe' 75 100 13 14
10 'PM.Fabian' 'victor2.pf' 232 245 8 9
11 'PM.Fabian' 'victor2.pm' 101 231 3 4;

param:
EBID: EBEXPERT EBS EBE EBL EBU :=
;

param:
PNAME: PERS PERE :=
'Jan.25' 1 16
'Feb.25' 17 45
'Mar.25' 46 76
'Apr.25' 77 105
'May.25' 106 139
'Jun.25' 140 170
'Jul.25' 171 199
'Aug.25' 200 230
'Sep.25' 231 259
'Oct.25' 260 289
'Nov.25' 290 317
'Dec.25' 318 346;

param:
EXPPER: PBL PBU :=
['PM.Fabian',*]
'Apr.25' 0 720
'Aug.25' 0 720
'Dec.25' 0 720
'Feb.25' 0 720
'Jan.25' 0 720
'Jul.25' 0 720
'Jun.25' 0 720
'Mar.25' 0 720
'May.25' 0 720
'Nov.25' 0 720
'Oct.25' 0 720
'Sep.25' 0 720;

